67
0
388
105
114
176
241
56
205
23
168
236
159
142
173
66
273
207
36
164
130
87
82
135
99
213
91
68
60
90
48
67
133
39
106
280
741
146
112
0
133
154
50
0
80
57
51
98
45
252
66
30
195
82
0
34
82
75
257
52
251
90
42
106
48
89
107
38
195
41
135
52
108
0
48
207
68
94
134
48
88
81
282
134
39
133
129
66
32
152
142
121
100
53
65
57
133
51
144
36
